p cnf 174 462
1 2 3 4 5 6 7 8 36 13 15 19 22 25 29 31 0
1 2 3 4 5 6 7 8 9 14 16 20 23 26 30 32 0
1 2 3 4 5 6 33 8 9 10 13 15 17 21 24 27 0
1 2 3 4 5 6 34 9 10 11 14 16 18 19 22 28 0
1 2 3 4 5 6 35 10 11 12 15 17 20 23 25 29 0
1 2 3 4 5 6 36 11 12 16 18 21 24 26 30 31 0
1 2 35 7 8 9 10 11 12 13 14 19 21 25 28 31 0
1 2 3 36 7 8 9 10 11 12 13 14 15 20 22 26 29 32 0
33 2 3 4 7 8 9 10 11 12 14 15 16 19 21 23 27 30 0
34 3 4 5 7 8 9 10 11 12 15 16 17 20 22 24 25 28 0
35 4 5 6 7 8 9 10 11 12 16 17 18 21 23 26 29 31 0
36 5 6 7 8 9 10 11 12 17 18 22 24 27 30 32 0
1 34 3 7 8 13 14 15 16 17 18 19 20 25 27 31 0
2 35 4 7 8 9 13 14 15 16 17 18 19 20 21 26 28 32 0
1 3 5 8 9 10 13 14 15 16 17 18 20 21 22 25 27 29 33 36 0
2 4 6 9 10 11 13 14 15 16 17 18 21 22 23 26 28 30 31 34 0
35 3 5 10 11 12 13 14 15 16 17 18 22 23 24 27 29 32 0
33 36 4 6 11 12 13 14 15 16 17 18 23 24 28 30 0
1 33 4 7 9 13 14 19 20 21 22 23 24 25 26 31 0
2 34 5 8 10 13 14 15 19 20 21 22 23 24 25 26 27 32 0
3 6 7 9 11 14 15 16 19 20 21 22 23 24 26 27 28 31 33 35 0
1 4 8 10 12 15 16 17 19 20 21 22 23 24 27 28 29 32 34 36 0
33 2 35 5 9 11 16 17 18 19 20 21 22 23 24 28 29 30 0
34 3 36 6 10 12 17 18 19 20 21 22 23 24 29 30 0
1 5 7 10 13 15 19 20 25 26 27 28 29 30 31 32 0
33 2 6 8 11 14 16 19 20 21 25 26 27 28 29 30 31 32 0
33 34 3 9 12 13 15 17 20 21 22 25 26 27 28 29 30 32 0
33 34 35 4 7 10 14 16 18 21 22 23 25 26 27 28 29 30 0
1 34 35 36 5 8 11 15 17 22 23 24 25 26 27 28 29 30 0
2 35 36 6 9 12 16 18 23 24 25 26 27 28 29 30 0
33 34 35 36 1 6 7 11 13 16 19 21 25 26 31 32 0
33 34 35 36 2 8 12 14 17 20 22 25 26 27 31 32 0
33 34 35 36 3 9 15 18 19 21 23 26 27 28 31 32 0
33 34 35 36 4 10 13 16 20 22 24 27 28 29 31 32 0
33 34 35 36 5 7 11 14 17 21 23 28 29 30 31 32 0
33 34 35 36 1 6 8 12 15 18 22 24 29 30 31 32 0
-1 -17 -27 0
-6 -14 -28 0
-31 -23 -9 0
-36 -10 -20 0
-59 43 64 0
-60 44 64 0
-61 45 64 0
-62 46 64 0
-63 47 64 0
-51 43 64 0
-52 44 64 0
-53 45 64 0
-54 46 64 0
-55 47 64 0
-51 -59 44 64 0
-51 -60 45 64 0
-51 -61 46 64 0
-51 -62 47 64 0
-51 -63 64 0
-52 -59 45 64 0
-52 -60 46 64 0
-52 -61 47 64 0
-52 -62 64 0
-52 -63 43 0
-53 -59 46 64 0
-53 -60 47 64 0
-53 -61 64 0
-53 -62 43 0
-53 -63 44 0
-54 -59 47 64 0
-54 -60 64 0
-54 -61 43 0
-54 -62 44 0
-54 -63 45 0
-55 -59 64 0
-55 -60 43 0
-55 -61 44 0
-55 -62 45 0
-55 -63 46 0
-64 37 0
-56 37 0
-64 -56 38 0
-57 38 0
-64 -57 39 0
-58 39 0
-64 -58 40 0
-48 37 0
-64 -48 38 0
-49 38 0
-64 -49 39 0
-50 39 0
-64 -50 40 0
-48 -56 38 0
-64 -48 -56 39 0
-48 -57 39 0
-64 -48 -57 40 0
-48 -58 40 0
-64 -48 -58 41 0
-49 -56 39 0
-64 -49 -56 40 0
-49 -57 40 0
-64 -49 -57 41 0
-49 -58 41 0
-64 -49 -58 42 0
-50 -56 40 0
-64 -50 -56 41 0
-50 -57 41 0
-64 -50 -57 42 0
-50 -58 42 0
-64 -50 -58 0
-72 59 77 0
-73 60 77 0
-74 61 77 0
-75 62 77 0
-76 63 77 0
-66 59 77 0
-67 60 77 0
-68 61 77 0
-69 62 77 0
-70 63 77 0
-66 -72 60 77 0
-66 -73 61 77 0
-66 -74 62 77 0
-66 -75 63 77 0
-66 -76 77 0
-67 -72 61 77 0
-67 -73 62 77 0
-67 -74 63 77 0
-67 -75 77 0
-67 -76 59 0
-68 -72 62 77 0
-68 -73 63 77 0
-68 -74 77 0
-68 -75 59 0
-68 -76 60 0
-69 -72 63 77 0
-69 -73 77 0
-69 -74 59 0
-69 -75 60 0
-69 -76 61 0
-70 -72 77 0
-70 -73 59 0
-70 -74 60 0
-70 -75 61 0
-70 -76 62 0
-77 56 0
-71 56 0
-77 -71 57 0
-65 56 0
-77 -65 57 0
-65 -71 57 0
-77 -65 -71 58 0
-86 78 0
-87 79 0
-83 78 0
-84 79 0
-85 80 0
-83 -86 79 0
-83 -87 80 0
-84 -86 80 0
-84 -87 81 0
-85 -86 81 0
-85 -87 82 0
-33 86 0
-27 86 0
-27 -33 87 0
-28 83 0
-88 83 0
-89 84 0
-88 -28 84 0
-89 -28 85 0
-34 88 0
-30 88 0
-30 -34 89 0
-96 90 0
-97 91 0
-94 90 0
-95 91 0
-94 -96 91 0
-94 -97 92 0
-95 -96 92 0
-95 -97 93 0
-31 96 0
-25 96 0
-25 -31 97 0
-26 94 0
-32 94 0
-32 -26 95 0
-90 72 98 0
-91 73 98 0
-92 74 98 0
-93 75 98 0
-78 72 98 0
-79 73 98 0
-80 74 98 0
-81 75 98 0
-82 76 98 0
-78 -90 73 98 0
-78 -91 74 98 0
-78 -92 75 98 0
-78 -93 76 98 0
-79 -90 74 98 0
-79 -91 75 98 0
-79 -92 76 98 0
-79 -93 98 0
-80 -90 75 98 0
-80 -91 76 98 0
-80 -92 98 0
-80 -93 72 0
-81 -90 76 98 0
-81 -91 98 0
-81 -92 72 0
-81 -93 73 0
-82 -90 98 0
-82 -91 72 0
-82 -92 73 0
-82 -93 74 0
-98 71 0
-107 99 0
-108 100 0
-104 99 0
-105 100 0
-106 101 0
-104 -107 100 0
-104 -108 101 0
-105 -107 101 0
-105 -108 102 0
-106 -107 102 0
-106 -108 103 0
-17 107 0
-18 107 0
-18 -17 108 0
-24 104 0
-109 104 0
-110 105 0
-109 -24 105 0
-110 -24 106 0
-6 109 0
-12 109 0
-12 -6 110 0
-117 111 0
-118 112 0
-115 111 0
-116 112 0
-115 -117 112 0
-115 -118 113 0
-116 -117 113 0
-116 -118 114 0
-36 117 0
-35 117 0
-35 -36 118 0
-29 115 0
-23 115 0
-23 -29 116 0
-111 66 119 0
-112 67 119 0
-113 68 119 0
-114 69 119 0
-99 66 119 0
-100 67 119 0
-101 68 119 0
-102 69 119 0
-103 70 119 0
-99 -111 67 119 0
-99 -112 68 119 0
-99 -113 69 119 0
-99 -114 70 119 0
-100 -111 68 119 0
-100 -112 69 119 0
-100 -113 70 119 0
-100 -114 119 0
-101 -111 69 119 0
-101 -112 70 119 0
-101 -113 119 0
-101 -114 66 0
-102 -111 70 119 0
-102 -112 119 0
-102 -113 66 0
-102 -114 67 0
-103 -111 119 0
-103 -112 66 0
-103 -113 67 0
-103 -114 68 0
-119 65 0
-127 51 132 0
-128 52 132 0
-129 53 132 0
-130 54 132 0
-131 55 132 0
-121 51 132 0
-122 52 132 0
-123 53 132 0
-124 54 132 0
-125 55 132 0
-121 -127 52 132 0
-121 -128 53 132 0
-121 -129 54 132 0
-121 -130 55 132 0
-121 -131 132 0
-122 -127 53 132 0
-122 -128 54 132 0
-122 -129 55 132 0
-122 -130 132 0
-122 -131 51 0
-123 -127 54 132 0
-123 -128 55 132 0
-123 -129 132 0
-123 -130 51 0
-123 -131 52 0
-124 -127 55 132 0
-124 -128 132 0
-124 -129 51 0
-124 -130 52 0
-124 -131 53 0
-125 -127 132 0
-125 -128 51 0
-125 -129 52 0
-125 -130 53 0
-125 -131 54 0
-132 48 0
-126 48 0
-132 -126 49 0
-120 48 0
-132 -120 49 0
-120 -126 49 0
-132 -120 -126 50 0
-141 133 0
-142 134 0
-138 133 0
-139 134 0
-140 135 0
-138 -141 134 0
-138 -142 135 0
-139 -141 135 0
-139 -142 136 0
-140 -141 136 0
-140 -142 137 0
-9 141 0
-10 141 0
-10 -9 142 0
-16 138 0
-143 138 0
-144 139 0
-143 -16 139 0
-144 -16 140 0
-22 143 0
-21 143 0
-21 -22 144 0
-151 145 0
-152 146 0
-149 145 0
-150 146 0
-149 -151 146 0
-149 -152 147 0
-150 -151 147 0
-150 -152 148 0
-11 151 0
-5 151 0
-5 -11 152 0
-4 149 0
-3 149 0
-3 -4 150 0
-145 127 153 0
-146 128 153 0
-147 129 153 0
-148 130 153 0
-133 127 153 0
-134 128 153 0
-135 129 153 0
-136 130 153 0
-137 131 153 0
-133 -145 128 153 0
-133 -146 129 153 0
-133 -147 130 153 0
-133 -148 131 153 0
-134 -145 129 153 0
-134 -146 130 153 0
-134 -147 131 153 0
-134 -148 153 0
-135 -145 130 153 0
-135 -146 131 153 0
-135 -147 153 0
-135 -148 127 0
-136 -145 131 153 0
-136 -146 153 0
-136 -147 127 0
-136 -148 128 0
-137 -145 153 0
-137 -146 127 0
-137 -147 128 0
-137 -148 129 0
-153 126 0
-162 154 0
-163 155 0
-159 154 0
-160 155 0
-161 156 0
-159 -162 155 0
-159 -163 156 0
-160 -162 156 0
-160 -163 157 0
-161 -162 157 0
-161 -163 158 0
-13 162 0
-7 162 0
-7 -13 163 0
-8 159 0
-164 159 0
-165 160 0
-164 -8 160 0
-165 -8 161 0
-2 164 0
-1 164 0
-1 -2 165 0
-172 166 0
-173 167 0
-170 166 0
-171 167 0
-170 -172 167 0
-170 -173 168 0
-171 -172 168 0
-171 -173 169 0
-15 172 0
-14 172 0
-14 -15 173 0
-20 170 0
-19 170 0
-19 -20 171 0
-166 121 174 0
-167 122 174 0
-168 123 174 0
-169 124 174 0
-154 121 174 0
-155 122 174 0
-156 123 174 0
-157 124 174 0
-158 125 174 0
-154 -166 122 174 0
-154 -167 123 174 0
-154 -168 124 174 0
-154 -169 125 174 0
-155 -166 123 174 0
-155 -167 124 174 0
-155 -168 125 174 0
-155 -169 174 0
-156 -166 124 174 0
-156 -167 125 174 0
-156 -168 174 0
-156 -169 121 0
-157 -166 125 174 0
-157 -167 174 0
-157 -168 121 0
-157 -169 122 0
-158 -166 174 0
-158 -167 121 0
-158 -168 122 0
-158 -169 123 0
-174 120 0
-37 0
-38 0
-39 0
-40 0
-41 0
-42 0
-46 0
-47 0
